VERSION: GPU-Pop B1-stride
NAME: BERLIN52
DIMENSION: 52
Islands: 128
Generations: 1000

Best tour length: 9412
	Command being timed: "./build/CUDA-GA-B1-stride data/berlin52.tsp 128 1000 0.05 2 42"
	User time (seconds): 0.06
	System time (seconds): 0.11
	Percent of CPU this job got: 94%
	Elapsed (wall clock) time (h:mm:ss or m:ss): 0:00.19
	Average shared text size (kbytes): 0
	Average unshared data size (kbytes): 0
	Average stack size (kbytes): 0
	Average total size (kbytes): 0
	Maximum resident set size (kbytes): 122188
	Average resident set size (kbytes): 0
	Major (requiring I/O) page faults: 1
	Minor (reclaiming a frame) page faults: 5528
	Voluntary context switches: 57
	Involuntary context switches: 2
	Swaps: 0
	File system inputs: 1976
	File system outputs: 8
	Socket messages sent: 0
	Socket messages received: 0
	Signals delivered: 0
	Page size (bytes): 4096
	Exit status: 0
